/*********************************************
 * OPL 12.9.0.0 Data
 * Author: agustin
 * Creation Date: Jan 31, 2020 at 5:17:37 AM
 *********************************************/
n = 7;

p=[30 17 30 43 34 33 58];
d=[46 35 38 44 45 40 63];
w=[2 1 2 1 1 3 2];